(set-option :print-success false)
(set-logic QF_UF)
(declare-sort x111 0)
(declare-sort x10 0)
(declare-fun x152 () x10)
(declare-fun x157 () x10)
(declare-fun x23 () x10)
(declare-fun x46 () x10)
(declare-fun x9 (x10 x10) x10)
(declare-fun x129 () x10)
(assert (not (and (and (= (x9 x157 x157) x152) (and (= (x9 x152 x23) x46) (= (x9 x129 x129) x23))) (= x157 (x9 x129 x23)))))
(assert (not (and (and (and (= x152 (x9 x46 x23)) (= x23 (x9 x157 x157))) (= x46 (x9 x129 x129))) (= x129 (x9 x157 x23)))))
(assert (not (and (= (x9 x23 x157) x46) (and (and (= (x9 x23 x23) x157) (= (x9 x129 x157) x152)) (= (x9 x46 x46) x129)))))
(assert (not (and (and (= (x9 x23 x23) x157) (and (= x152 (x9 x157 x129)) (= (x9 x46 x46) x129))) (= (x9 x46 x129) x23))))
(assert (not (and (= (x9 x23 x157) x46) (and (and (= x129 (x9 x152 x157)) (= (x9 x23 x23) x157)) (= x152 (x9 x46 x46))))))
(assert (not (and (= (x9 x152 x157) x129) (and (and (= x46 (x9 x23 x157)) (= x157 (x9 x152 x152))) (= (x9 x129 x129) x23)))))
(assert (or (or (or (or (not (= (x9 (x9 x46 x46) x46) x46)) (not (= x129 (x9 (x9 x129 x129) x129)))) (not (= (x9 (x9 x152 x152) x152) x152))) (not (= x157 (x9 (x9 x157 x157) x157)))) (not (= (x9 (x9 x23 x23) x23) x23))))
(assert (not (and (= x157 (x9 x129 x23)) (and (and (= (x9 x46 x23) x152) (= (x9 x129 x129) x23)) (= x46 (x9 x157 x157))))))
(assert (not (and (= (x9 x23 x129) x152) (and (and (= x46 (x9 x157 x129)) (= (x9 x23 x23) x129)) (= x157 (x9 x152 x152))))))
(assert (not (and (= x46 (x9 x129 x23)) (and (= x157 (x9 x46 x46)) (and (= (x9 x129 x129) x23) (= x152 (x9 x157 x23)))))))
(assert (let ((x82 (x9 x129 x152)) (x28 (x9 x152 x129)) (x153 (x9 x152 x23)) (x36 (x9 x23 x157)) (x143 (x9 x157 x46)) (x71 (x9 x157 x152)) (x8 (x9 x152 x46)) (x120 (x9 x157 x157)) (x47 (x9 x157 x23)) (x107 (x9 x23 x23)) (x95 (x9 x157 x129)) (x96 (x9 x46 x23)) (x19 (x9 x129 x129)) (x136 (x9 x129 x157)) (x39 (x9 x23 x46)) (x118 (x9 x46 x129)) (x101 (x9 x129 x23)) (x122 (x9 x152 x157)) (x84 (x9 x46 x157)) (x63 (x9 x23 x129)) (x30 (x9 x129 x46)) (x142 (x9 x46 x46)) (x89 (x9 x46 x152)) (x14 (x9 x23 x152)) (x109 (x9 x152 x152))) (and (and (and (and (and (and (not (= x39 x107)) (and (and (not (= x14 x39)) (and (and (and (not (= x14 x63)) (not (= x63 x39))) (not (= x36 x63))) (not (= x63 x107)))) (not (= x36 x39)))) (not (= x14 x36))) (not (= x14 x107))) (not (= x107 x36))) (and (and (and (and (not (= x71 x120)) (and (not (= x143 x47)) (and (not (= x143 x120)) (and (not (= x143 x71)) (and (and (and (not (= x95 x71)) (not (= x95 x143))) (not (= x95 x120))) (not (= x95 x47))))))) (not (= x47 x71))) (not (= x120 x47))) (and (and (and (and (and (not (= x82 x136)) (and (not (= x30 x101)) (and (and (and (not (= x19 x101)) (and (and (not (= x19 x82)) (not (= x30 x19))) (not (= x136 x19)))) (not (= x82 x30))) (not (= x30 x136))))) (not (= x101 x82))) (not (= x136 x101))) (and (not (= x96 x84)) (and (and (and (and (not (= x142 x84)) (and (not (= x89 x142)) (and (not (= x96 x118)) (and (not (= x84 x118)) (and (not (= x89 x118)) (not (= x142 x118))))))) (not (= x142 x96))) (not (= x89 x84))) (not (= x96 x89))))) (and (and (and (not (= x122 x109)) (and (and (and (not (= x8 x109)) (and (not (= x28 x153)) (and (not (= x122 x28)) (and (not (= x8 x28)) (not (= x109 x28)))))) (not (= x8 x122))) (not (= x8 x153)))) (not (= x153 x109))) (not (= x153 x122)))))) (and (and (and (not (= x36 x120)) (and (not (= x122 x36)) (and (and (and (and (and (not (= x136 x36)) (and (not (= x136 x120)) (and (not (= x136 x122)) (not (= x136 x84))))) (not (= x84 x122))) (not (= x84 x120))) (not (= x36 x84))) (not (= x120 x122))))) (and (and (and (and (and (and (not (= x39 x142)) (and (not (= x142 x143)) (and (not (= x142 x8)) (and (not (= x30 x39)) (and (and (not (= x142 x30)) (not (= x30 x8))) (not (= x143 x30))))))) (not (= x143 x8))) (not (= x39 x8))) (not (= x39 x143))) (and (and (not (= x28 x63)) (and (and (and (not (= x118 x95)) (and (and (and (and (not (= x28 x19)) (not (= x19 x118))) (not (= x19 x95))) (not (= x63 x19))) (not (= x118 x28)))) (not (= x118 x63))) (not (= x28 x95)))) (not (= x63 x95)))) (and (not (= x14 x71)) (and (and (not (= x71 x109)) (and (and (and (not (= x109 x89)) (and (and (and (not (= x89 x82)) (not (= x82 x109))) (not (= x71 x82))) (not (= x82 x14)))) (not (= x71 x89))) (not (= x14 x89)))) (not (= x109 x14)))))) (and (not (= x107 x47)) (and (and (not (= x47 x153)) (and (and (and (and (and (and (not (= x101 x153)) (not (= x101 x96))) (not (= x47 x101))) (not (= x101 x107))) (not (= x153 x96))) (not (= x47 x96))) (not (= x107 x96)))) (not (= x153 x107))))))))
(assert (not (and (and (= x152 (x9 x23 x23)) (and (= x46 (x9 x129 x129)) (= x157 (x9 x152 x46)))) (= (x9 x129 x46) x23))))
(assert (not (and (and (and (= (x9 x23 x23) x46) (= x152 (x9 x157 x46))) (= (x9 x129 x129) x157)) (= (x9 x23 x46) x129))))
(assert (not (and (= x129 (x9 x157 x152)) (and (= x46 (x9 x129 x129)) (and (= x23 (x9 x46 x152)) (= (x9 x157 x157) x152))))))
(assert (not (and (= (x9 x46 x152) x129) (and (and (= x157 (x9 x23 x152)) (= x152 (x9 x46 x46))) (= (x9 x129 x129) x23)))))
(assert (not (and (= (x9 x129 x157) x23) (and (and (= x152 (x9 x46 x157)) (= x157 (x9 x129 x129))) (= x46 (x9 x23 x23))))))
(assert (not (and (and (= x157 (x9 x46 x46)) (and (= x152 (x9 x23 x23)) (= (x9 x157 x152) x129))) (= x46 (x9 x23 x152)))))
(assert (or (and (and (and (and (not (= x46 (x9 x23 (x9 x23 x46)))) (not (= x129 (x9 x23 (x9 x23 x129))))) (not (= (x9 x23 (x9 x23 x152)) x152))) (not (= (x9 x23 (x9 x23 x157)) x157))) (not (= x23 (x9 x23 (x9 x23 x23))))) (or (and (not (= (x9 x157 (x9 x157 x23)) x23)) (and (and (not (= x152 (x9 x157 (x9 x157 x152)))) (and (not (= (x9 x157 (x9 x157 x129)) x129)) (not (= (x9 x157 (x9 x157 x46)) x46)))) (not (= (x9 x157 (x9 x157 x157)) x157)))) (or (and (and (and (and (not (= x46 (x9 x152 (x9 x152 x46)))) (not (= (x9 x152 (x9 x152 x129)) x129))) (not (= x152 (x9 x152 (x9 x152 x152))))) (not (= (x9 x152 (x9 x152 x157)) x157))) (not (= x23 (x9 x152 (x9 x152 x23))))) (or (and (and (and (and (not (= x129 (x9 x46 (x9 x46 x129)))) (not (= (x9 x46 (x9 x46 x46)) x46))) (not (= (x9 x46 (x9 x46 x152)) x152))) (not (= x157 (x9 x46 (x9 x46 x157))))) (not (= x23 (x9 x46 (x9 x46 x23))))) (and (and (not (= (x9 x129 (x9 x129 x157)) x157)) (and (and (not (= (x9 x129 (x9 x129 x129)) x129)) (not (= x46 (x9 x129 (x9 x129 x46))))) (not (= x152 (x9 x129 (x9 x129 x152)))))) (not (= (x9 x129 (x9 x129 x23)) x23))))))))
(assert (not (and (= x46 (x9 x129 x157)) (and (= (x9 x46 x46) x152) (and (= x157 (x9 x129 x129)) (= x23 (x9 x152 x157)))))))
(assert (not (and (= (x9 x46 x157) x152) (and (= x129 (x9 x152 x152)) (and (= x23 (x9 x129 x157)) (= x157 (x9 x46 x46)))))))
(assert (not (and (and (= (x9 x157 x157) x129) (and (= x23 (x9 x129 x152)) (= x152 (x9 x46 x46)))) (= x157 (x9 x46 x152)))))
(assert (not (and (and (= (x9 x129 x129) x46) (and (= x152 (x9 x23 x23)) (= (x9 x46 x152) x157))) (= x129 (x9 x23 x152)))))
(assert (not (and (and (and (= x46 (x9 x152 x152)) (= (x9 x157 x46) x23)) (= (x9 x129 x129) x157)) (= x129 (x9 x152 x46)))))
(assert (not (and (and (and (= x23 (x9 x129 x157)) (= x157 (x9 x152 x152))) (= (x9 x46 x46) x129)) (= (x9 x152 x157) x46))))
(assert (not (and (= x152 (x9 x129 x46)) (and (and (= x23 (x9 x157 x46)) (= (x9 x129 x129) x46)) (= (x9 x152 x152) x157)))))
(assert (not (and (and (= x157 (x9 x46 x46)) (and (= x129 (x9 x152 x152)) (= (x9 x157 x129) x23))) (= (x9 x152 x129) x46))))
(assert (not (and (and (= (x9 x129 x129) x152) (and (= x157 (x9 x23 x23)) (= (x9 x152 x157) x46))) (= x129 (x9 x23 x157)))))
(assert (or (= (x9 x23 x23) x23) (or (= (x9 x157 x157) x157) (or (= (x9 x152 x152) x152) (or (= x46 (x9 x46 x46)) (= (x9 x129 x129) x129))))))
(assert (not (and (and (= (x9 x23 x23) x129) (and (= (x9 x129 x152) x157) (= x152 (x9 x46 x46)))) (= x23 (x9 x46 x152)))))
(assert (not (and (= x46 (x9 x129 x152)) (and (= x23 (x9 x46 x46)) (and (= x152 (x9 x129 x129)) (= x157 (x9 x23 x152)))))))
(assert (let ((x89 (x9 x152 x46)) (x122 (x9 x157 x152)) (x8 (x9 x46 x152)) (x84 (x9 x157 x46)) (x36 (x9 x157 x23)) (x63 (x9 x129 x23)) (x39 (x9 x46 x23)) (x109 (x9 x152 x152)) (x101 (x9 x23 x129)) (x82 (x9 x152 x129)) (x95 (x9 x129 x157)) (x71 (x9 x152 x157)) (x120 (x9 x157 x157)) (x96 (x9 x23 x46)) (x136 (x9 x157 x129)) (x47 (x9 x23 x157)) (x14 (x9 x152 x23)) (x19 (x9 x129 x129)) (x30 (x9 x46 x129)) (x143 (x9 x46 x157)) (x153 (x9 x23 x152)) (x28 (x9 x129 x152)) (x142 (x9 x46 x46)) (x118 (x9 x129 x46)) (x107 (x9 x23 x23))) (and (and (and (and (and (and (and (and (or (or (or (= x19 x152) (or (= x19 x46) (= x19 x129))) (= x157 x19)) (= x19 x23)) (or (= x118 x23) (or (= x157 x118) (or (= x118 x152) (or (= x118 x129) (= x46 x118)))))) (or (or (or (= x28 x152) (or (= x28 x46) (= x129 x28))) (= x157 x28)) (= x23 x28))) (or (or (or (= x152 x95) (or (= x95 x129) (= x95 x46))) (= x95 x157)) (= x95 x23))) (or (= x63 x23) (or (or (= x152 x63) (or (= x46 x63) (= x129 x63))) (= x63 x157)))) (and (or (= x39 x23) (or (= x157 x39) (or (or (= x39 x46) (= x39 x129)) (= x152 x39)))) (and (and (or (or (= x157 x8) (or (= x152 x8) (or (= x8 x46) (= x129 x8)))) (= x23 x8)) (and (or (= x23 x142) (or (= x157 x142) (or (= x152 x142) (or (= x142 x129) (= x142 x46))))) (or (= x30 x23) (or (= x30 x157) (or (= x30 x152) (or (= x30 x129) (= x46 x30))))))) (or (or (= x157 x143) (or (= x152 x143) (or (= x46 x143) (= x129 x143)))) (= x143 x23))))) (and (or (or (or (= x152 x14) (or (= x129 x14) (= x14 x46))) (= x14 x157)) (= x23 x14)) (and (or (= x71 x23) (or (= x157 x71) (or (= x71 x152) (or (= x46 x71) (= x129 x71))))) (and (or (or (= x157 x109) (or (or (= x109 x46) (= x129 x109)) (= x109 x152))) (= x109 x23)) (and (or (or (or (or (= x89 x46) (= x89 x129)) (= x152 x89)) (= x89 x157)) (= x23 x89)) (or (= x23 x82) (or (or (= x82 x152) (or (= x46 x82) (= x82 x129))) (= x157 x82)))))))) (and (and (and (and (or (or (= x157 x84) (or (= x152 x84) (or (= x84 x129) (= x46 x84)))) (= x84 x23)) (or (or (= x157 x136) (or (= x136 x152) (or (= x136 x129) (= x136 x46)))) (= x23 x136))) (or (= x122 x23) (or (= x122 x157) (or (or (= x122 x46) (= x129 x122)) (= x152 x122))))) (or (= x120 x23) (or (or (or (= x120 x46) (= x120 x129)) (= x152 x120)) (= x120 x157)))) (or (= x36 x23) (or (or (= x152 x36) (or (= x36 x129) (= x46 x36))) (= x157 x36))))) (and (and (and (or (or (or (= x152 x153) (or (= x46 x153) (= x129 x153))) (= x157 x153)) (= x23 x153)) (and (or (or (= x157 x101) (or (= x101 x152) (or (= x101 x129) (= x101 x46)))) (= x23 x101)) (or (or (= x157 x96) (or (or (= x96 x129) (= x46 x96)) (= x152 x96))) (= x23 x96)))) (or (= x47 x23) (or (= x157 x47) (or (= x47 x152) (or (= x46 x47) (= x129 x47)))))) (or (= x107 x23) (or (or (or (= x46 x107) (= x107 x129)) (= x107 x152)) (= x157 x107)))))))
(assert (not (and (= (x9 x129 x157) x46) (and (and (= x157 (x9 x129 x129)) (= (x9 x23 x157) x152)) (= x23 (x9 x46 x46))))))
(assert (not (and (and (and (= (x9 x152 x46) x129) (= (x9 x23 x23) x46)) (= x152 (x9 x157 x157))) (= (x9 x23 x46) x157))))
(assert (not (and (= (x9 x152 x46) x157) (and (= x23 (x9 x157 x157)) (and (= x46 (x9 x152 x152)) (= x129 (x9 x23 x46)))))))
(assert (let ((x96 (x9 x46 x23)) (x106 (x9 x23 x46)) (x128 (x9 x23 x157)) (x137 (x9 x23 x23)) (x63 (x9 x129 x157)) (x30 (x9 x129 x23)) (x37 (x9 x152 x152)) (x143 (x9 x152 x129)) (x28 (x9 x129 x46)) (x36 (x9 x46 x152)) (x118 (x9 x129 x129)) (x101 (x9 x46 x157)) (x95 (x9 x129 x152)) (x39 (x9 x157 x129)) (x138 (x9 x157 x157)) (x92 (x9 x157 x23)) (x146 (x9 x157 x152)) (x31 (x9 x23 x152)) (x15 (x9 x152 x23)) (x8 (x9 x46 x129)) (x82 (x9 x23 x129)) (x125 (x9 x157 x46)) (x120 (x9 x46 x46)) (x144 (x9 x152 x157)) (x107 (x9 x152 x46))) (let ((x140 (= x157 x120)) (x18 (= x23 x144)) (x93 (= x157 x37)) (x123 (= x23 x28)) (x136 (= x28 x129)) (x69 (= x82 x23)) (x20 (= x96 x152)) (x33 (= x129 x36)) (x145 (= x143 x152)) (x102 (= x125 x129)) (x54 (= x96 x157)) (x57 (= x46 x137)) (x16 (= x129 x92)) (x32 (= x15 x152)) (x38 (= x39 x46)) (x65 (= x157 x36)) (x150 (= x157 x144)) (x59 (= x157 x31)) (x34 (= x23 x138)) (x40 (= x152 x92)) (x83 (= x46 x138)) (x73 (= x46 x37)) (x26 (= x23 x101)) (x43 (= x157 x15)) (x94 (= x36 x46)) (x70 (= x144 x46)) (x67 (= x46 x128)) (x27 (= x46 x96)) (x86 (= x101 x152)) (x47 (= x120 x46)) (x131 (= x63 x129)) (x35 (= x15 x129)) (x135 (= x152 x120)) (x151 (= x101 x157)) (x60 (= x125 x157)) (x58 (= x30 x157)) (x48 (= x107 x23)) (x112 (= x129 x146)) (x66 (= x95 x129)) (x130 (= x46 x31)) (x78 (= x144 x129)) (x68 (= x92 x46)) (x19 (= x129 x118)) (x3 (= x106 x46)) (x100 (= x92 x23)) (x75 (= x30 x46)) (x72 (= x129 x137)) (x139 (= x129 x143)) (x79 (= x157 x107)) (x49 (= x106 x23)) (x77 (= x36 x23)) (x121 (= x46 x15)) (x133 (= x152 x95)) (x87 (= x37 x23)) (x108 (= x152 x146)) (x115 (= x138 x152)) (x127 (= x157 x138)) (x14 (= x8 x129)) (x13 (= x157 x63)) (x134 (= x144 x152)) (x84 (= x120 x129)) (x116 (= x31 x129)) (x104 (= x36 x152)) (x99 (= x82 x46)) (x53 (= x107 x129)) (x148 (= x28 x152)) (x74 (= x129 x138)) (x5 (= x125 x152)) (x89 (= x118 x152)) (x117 (= x96 x23)) (x76 (= x95 x23)) (x103 (= x157 x137)) (x109 (= x157 x118)) (x62 (= x63 x152)) (x42 (= x129 x82)) (x132 (= x39 x157)) (x7 (= x152 x106)) (x154 (= x128 x129)) (x153 (= x46 x28)) (x2 (= x129 x101)) (x85 (= x125 x46)) (x17 (= x157 x146)) (x88 (= x152 x8)) (x81 (= x152 x39)) (x64 (= x106 x157)) (x149 (= x146 x23)) (x71 (= x23 x118)) (x147 (= x129 x106)) (x126 (= x23 x39)) (x105 (= x128 x152)) (x6 (= x23 x15)) (x11 (= x157 x82)) (x24 (= x46 x107)) (x12 (= x152 x30)) (x44 (= x143 x46)) (x113 (= x37 x129)) (x156 (= x30 x23)) (x97 (= x95 x46)) (x21 (= x143 x157)) (x142 (= x46 x118)) (x29 (= x96 x129)) (x51 (= x95 x157)) (x52 (= x23 x8)) (x25 (= x129 x30)) (x90 (= x37 x152)) (x91 (= x23 x125)) (x141 (= x46 x146)) (x55 (= x63 x46)) (x110 (= x128 x157)) (x45 (= x23 x137)) (x50 (= x23 x128)) (x1 (= x137 x152)) (x158 (= x157 x8)) (x56 (= x152 x82)) (x155 (= x152 x31)) (x119 (= x157 x92)) (x122 (= x46 x8)) (x41 (= x107 x152)) (x124 (= x120 x23)) (x22 (= x23 x31)) (x98 (= x143 x23)) (x80 (= x129 x39)) (x4 (= x63 x23)) (x61 (= x101 x46)) (x114 (= x28 x157))) (and (and (and (and (and (and (and (or (or (or x21 (or x158 x109)) x132) x11) (or (or (or x51 (or x114 x109)) x13) x58)) (and (and (or (or x62 (or (or x148 x89) x133)) x12) (or (or x81 (or (or x89 x88) x145)) x56)) (and (and (or x75 (or x55 (or (or x142 x153) x97))) (or (or (or (or x142 x122) x44) x38) x99)) (and (or (or x80 (or x139 (or x14 x19))) x42) (or (or x131 (or (or x136 x19) x66)) x25))))) (and (or (or (or x76 (or x71 x123)) x4) x156) (or (or x126 (or (or x52 x71) x98)) x69))) (and (and (or (or x26 (or x77 (or x124 x52))) x117) (or (or (or (or x123 x124) x48) x91) x49)) (and (and (and (or (or x5 (or (or x135 x148) x41)) x7) (or (or (or (or x135 x88) x104) x86) x20)) (and (and (or (or (or x53 (or x136 x84)) x102) x147) (or (or (or x33 (or x14 x84)) x2) x29)) (and (or x27 (or x61 (or x94 (or x47 x122)))) (or x3 (or (or x24 (or x47 x153)) x85))))) (and (or x54 (or x151 (or (or x158 x140) x65))) (or x64 (or (or (or x140 x114) x79) x60)))))) (and (and (or (or (or x87 (or x77 x76)) x149) x22) (or (or x18 (or (or x48 x98) x87)) x6)) (and (and (and (and (or (or x141 (or (or x97 x94) x73)) x130) (or (or (or x73 (or x44 x24)) x70) x121)) (and (or x116 (or (or (or x66 x33) x113) x112)) (or (or (or (or x53 x139) x113) x78) x35))) (and (or x32 (or (or (or x41 x145) x90) x134)) (or (or x108 (or (or x133 x104) x90)) x155))) (and (or (or (or (or x51 x65) x93) x17) x59) (or (or (or x93 (or x21 x79)) x150) x43))))) (and (and (or (or (or x149 (or x91 x126)) x34) x100) (or x50 (or x34 (or (or x4 x26) x18)))) (and (and (and (or x40 (or x115 (or x108 (or x5 x81)))) (or (or (or x134 (or x62 x86)) x115) x105)) (and (and (or x68 (or x83 (or (or x38 x85) x141))) (or (or x83 (or x70 (or x61 x55))) x67)) (and (or x16 (or x74 (or x112 (or x80 x102)))) (or x154 (or (or x78 (or x131 x2)) x74))))) (and (or (or (or x17 (or x60 x132)) x127) x119) (or x110 (or x127 (or x150 (or x13 x151)))))))) (and (and (or x45 (or (or (or x117 x156) x6) x100)) (or x45 (or x50 (or (or x69 x49) x22)))) (and (and (or (or (or (or x11 x64) x59) x110) x103) (or x103 (or x119 (or (or x58 x54) x43)))) (and (and (or x1 (or (or (or x20 x12) x32) x40)) (or (or (or (or x7 x56) x155) x105) x1)) (and (and (or x72 (or (or (or x25 x29) x35) x16)) (or x72 (or (or x116 (or x147 x42)) x154))) (and (or (or (or (or x27 x75) x121) x68) x57) (or (or x67 (or x130 (or x99 x3))) x57))))))))))
(assert (not (and (= (x9 x152 x23) x157) (and (= (x9 x157 x157) x129) (and (= x23 (x9 x152 x152)) (= x46 (x9 x129 x23)))))))
(assert (not (and (and (and (= (x9 x23 x152) x46) (= (x9 x129 x129) x152)) (= (x9 x157 x157) x23)) (= (x9 x129 x152) x157))))
(assert (not (and (and (= (x9 x152 x152) x23) (and (= x157 (x9 x46 x46)) (= x129 (x9 x23 x157)))) (= x152 (x9 x46 x157)))))
(assert (not (and (and (and (= x129 (x9 x46 x46)) (= x23 (x9 x157 x129))) (= x157 (x9 x152 x152))) (= (x9 x46 x129) x152))))
(assert (not (and (= x152 (x9 x23 x129)) (and (and (= x129 (x9 x23 x23)) (= (x9 x46 x129) x157)) (= x46 (x9 x152 x152))))))
(assert (not (and (and (and (= (x9 x157 x157) x23) (= x46 (x9 x129 x23))) (= (x9 x152 x152) x129)) (= (x9 x157 x23) x152))))
(assert (not (and (and (= (x9 x129 x129) x157) (and (= (x9 x157 x152) x23) (= x152 (x9 x46 x46)))) (= x129 (x9 x46 x152)))))
(assert (and (and (or (or (or (= x157 (x9 x152 (x9 x157 x152))) (or (= x157 (x9 x129 (x9 x157 x129))) (= (x9 x46 (x9 x157 x46)) x157))) (= (x9 x157 (x9 x157 x157)) x157)) (= (x9 x23 (x9 x157 x23)) x157)) (and (and (or (or (or (or (= (x9 x129 (x9 x129 x129)) x129) (= x129 (x9 x46 (x9 x129 x46)))) (= x129 (x9 x152 (x9 x129 x152)))) (= (x9 x157 (x9 x129 x157)) x129)) (= (x9 x23 (x9 x129 x23)) x129)) (or (= (x9 x23 (x9 x46 x23)) x46) (or (= x46 (x9 x157 (x9 x46 x157))) (or (= (x9 x152 (x9 x46 x152)) x46) (or (= x46 (x9 x46 (x9 x46 x46))) (= (x9 x129 (x9 x46 x129)) x46)))))) (or (= (x9 x23 (x9 x152 x23)) x152) (or (= x152 (x9 x157 (x9 x152 x157))) (or (or (= x152 (x9 x46 (x9 x152 x46))) (= x152 (x9 x129 (x9 x152 x129)))) (= x152 (x9 x152 (x9 x152 x152)))))))) (or (= x23 (x9 x23 (x9 x23 x23))) (or (or (= x23 (x9 x152 (x9 x23 x152))) (or (= (x9 x46 (x9 x23 x46)) x23) (= (x9 x129 (x9 x23 x129)) x23))) (= (x9 x157 (x9 x23 x157)) x23)))))
(assert (not (and (and (= x129 (x9 x23 x23)) (and (= x157 (x9 x152 x152)) (= (x9 x129 x157) x46))) (= x23 (x9 x152 x157)))))
(assert (not (and (and (= (x9 x157 x157) x129) (and (= (x9 x129 x23) x152) (= x23 (x9 x46 x46)))) (= (x9 x46 x23) x157))))
(assert (not (and (and (and (= x152 (x9 x129 x129)) (= (x9 x157 x152) x46)) (= x157 (x9 x23 x23))) (= x23 (x9 x129 x152)))))
(assert (not (and (and (= x157 (x9 x129 x129)) (and (= (x9 x46 x46) x23) (= x152 (x9 x157 x23)))) (= x129 (x9 x46 x23)))))
(assert (not (and (= (x9 x46 x157) x129) (and (= (x9 x129 x129) x152) (and (= (x9 x152 x157) x23) (= (x9 x46 x46) x157))))))
(assert (not (and (and (and (= x23 (x9 x129 x129)) (= (x9 x152 x23) x157)) (= (x9 x46 x46) x152)) (= x46 (x9 x129 x23)))))
(assert (not (and (and (and (= (x9 x152 x152) x46) (= (x9 x129 x46) x157)) (= x129 (x9 x23 x23))) (= (x9 x152 x46) x23))))
(assert (not (and (= x129 (x9 x152 x157)) (and (= x46 (x9 x129 x129)) (and (= x157 (x9 x152 x152)) (= x23 (x9 x46 x157)))))))
(assert (not (and (and (= (x9 x157 x157) x152) (and (= (x9 x152 x46) x23) (= (x9 x129 x129) x46))) (= (x9 x129 x46) x157))))
(assert (let ((x95 (x9 x157 x157)) (x63 (x9 x23 x23)) (x28 (x9 x152 x152)) (x118 (x9 x46 x46)) (x19 (x9 x129 x129))) (or (and (not (= x23 x63)) (and (not (= x95 x23)) (and (and (not (= x19 x23)) (not (= x23 x118))) (not (= x23 x28))))) (or (or (and (not (= x152 x63)) (and (and (and (not (= x152 x19)) (not (= x118 x152))) (not (= x152 x28))) (not (= x152 x95)))) (or (and (not (= x63 x46)) (and (and (not (= x28 x46)) (and (not (= x118 x46)) (not (= x46 x19)))) (not (= x95 x46)))) (and (and (and (not (= x129 x28)) (and (not (= x129 x19)) (not (= x118 x129)))) (not (= x95 x129))) (not (= x129 x63))))) (and (not (= x157 x63)) (and (not (= x95 x157)) (and (not (= x157 x28)) (and (not (= x19 x157)) (not (= x157 x118))))))))))
(assert (not (and (and (and (= (x9 x152 x23) x129) (= (x9 x46 x46) x23)) (= (x9 x157 x157) x152)) (= x157 (x9 x46 x23)))))
(assert (let ((x63 (x9 x23 x23)) (x19 (x9 x129 x129)) (x95 (x9 x157 x157)) (x28 (x9 x152 x152)) (x118 (x9 x46 x46))) (and (and (and (and (= x19 (x9 x19 x19)) (= x118 (x9 x118 x118))) (= (x9 x28 x28) x28)) (= (x9 x95 x95) x95)) (= (x9 x63 x63) x63))))
(assert (not (and (and (and (= (x9 x23 x129) x157) (= x129 (x9 x46 x46))) (= (x9 x152 x152) x23)) (= x152 (x9 x46 x129)))))
(assert (not (and (and (and (= x129 (x9 x46 x23)) (= x23 (x9 x152 x152))) (= (x9 x157 x157) x46)) (= x157 (x9 x152 x23)))))
(assert (not (and (and (= x129 (x9 x152 x152)) (and (= (x9 x46 x46) x23) (= x157 (x9 x129 x23)))) (= (x9 x46 x23) x152))))
(assert (not (and (= (x9 x23 x129) x46) (and (and (= x129 (x9 x23 x23)) (= (x9 x152 x129) x157)) (= (x9 x46 x46) x152)))))
(assert (not (and (and (= x129 (x9 x46 x46)) (and (= (x9 x152 x152) x23) (= (x9 x129 x23) x157))) (= (x9 x152 x23) x46))))
(assert (not (and (= x157 (x9 x129 x152)) (and (= (x9 x157 x157) x46) (and (= x23 (x9 x46 x152)) (= x152 (x9 x129 x129)))))))
(assert (not (and (= (x9 x157 x23) x46) (and (and (= x23 (x9 x157 x157)) (= x152 (x9 x129 x23))) (= (x9 x46 x46) x129)))))
(assert (not (and (and (and (= x129 (x9 x152 x152)) (= (x9 x23 x129) x157)) (= x23 (x9 x46 x46))) (= x46 (x9 x152 x129)))))
(assert (not (and (= x129 (x9 x23 x157)) (and (= (x9 x129 x129) x46) (and (= x152 (x9 x46 x157)) (= x157 (x9 x23 x23)))))))
(assert (not (and (and (and (= x129 (x9 x157 x46)) (= x46 (x9 x152 x152))) (= x157 (x9 x23 x23))) (= x23 (x9 x152 x46)))))
(assert (and (and (and (or (= x152 (x9 (x9 x23 x152) x23)) (or (= x152 (x9 (x9 x157 x152) x157)) (or (= x152 (x9 (x9 x152 x152) x152)) (or (= (x9 (x9 x129 x152) x129) x152) (= (x9 (x9 x46 x152) x46) x152))))) (and (or (or (= x129 (x9 (x9 x157 x129) x157)) (or (= x129 (x9 (x9 x152 x129) x152)) (or (= (x9 (x9 x46 x129) x46) x129) (= x129 (x9 (x9 x129 x129) x129))))) (= x129 (x9 (x9 x23 x129) x23))) (or (or (or (or (= x46 (x9 (x9 x46 x46) x46)) (= (x9 (x9 x129 x46) x129) x46)) (= x46 (x9 (x9 x152 x46) x152))) (= (x9 (x9 x157 x46) x157) x46)) (= x46 (x9 (x9 x23 x46) x23))))) (or (or (= (x9 (x9 x157 x157) x157) x157) (or (or (= x157 (x9 (x9 x46 x157) x46)) (= x157 (x9 (x9 x129 x157) x129))) (= x157 (x9 (x9 x152 x157) x152)))) (= (x9 (x9 x23 x157) x23) x157))) (or (= (x9 (x9 x23 x23) x23) x23) (or (or (= x23 (x9 (x9 x152 x23) x152)) (or (= (x9 (x9 x129 x23) x129) x23) (= x23 (x9 (x9 x46 x23) x46)))) (= x23 (x9 (x9 x157 x23) x157))))))
(assert (not (and (= (x9 x129 x157) x152) (and (= (x9 x152 x152) x23) (and (= x157 (x9 x129 x129)) (= (x9 x23 x157) x46))))))
(assert (not (and (and (= x46 (x9 x23 x23)) (and (= x129 (x9 x152 x152)) (= x157 (x9 x46 x129)))) (= x23 (x9 x152 x129)))))
(assert (not (and (= x23 (x9 x46 x129)) (and (= x152 (x9 x23 x23)) (and (= (x9 x46 x46) x129) (= (x9 x152 x129) x157))))))
(assert (not (and (= x157 (x9 x152 x46)) (and (= x129 (x9 x157 x157)) (and (= x23 (x9 x129 x46)) (= x46 (x9 x152 x152)))))))
(assert (not (and (= x152 (x9 x129 x23)) (and (= (x9 x152 x152) x157) (and (= (x9 x129 x129) x23) (= x46 (x9 x157 x23)))))))
(assert (not (and (and (and (= (x9 x23 x46) x152) (= (x9 x157 x157) x46)) (= (x9 x129 x129) x23)) (= (x9 x157 x46) x129))))
(assert (not (and (and (= (x9 x23 x23) x46) (and (= x152 (x9 x157 x157)) (= x129 (x9 x46 x152)))) (= x23 (x9 x157 x152)))))
(assert (not (and (and (= x129 (x9 x152 x152)) (and (= (x9 x23 x23) x157) (= (x9 x129 x157) x46))) (= x152 (x9 x23 x157)))))
(assert (not (and (and (and (= (x9 x46 x23) x157) (= x23 (x9 x129 x129))) (= x46 (x9 x152 x152))) (= x152 (x9 x129 x23)))))
(assert (not (and (and (and (= x46 (x9 x157 x152)) (= x152 (x9 x23 x23))) (= x157 (x9 x129 x129))) (= (x9 x23 x152) x129))))
(assert (let ((x95 (= x157 (x9 x157 x157))) (x19 (= (x9 x129 x129) x129)) (x63 (= (x9 x23 x23) x23)) (x118 (= x46 (x9 x46 x46))) (x28 (= x152 (x9 x152 x152)))) (and (and (or (not x63) x63) (and (or (not (= (x9 x23 x157) x23)) x95) (and (or x28 (not (= (x9 x23 x152) x23))) (and (or x19 (not (= x23 (x9 x23 x129)))) (or (not (= x23 (x9 x23 x46))) x118))))) (and (and (and (or x63 (not (= x152 (x9 x152 x23)))) (and (and (or (not x28) x28) (and (or x118 (not (= x152 (x9 x152 x46)))) (or (not (= x152 (x9 x152 x129))) x19))) (or (not (= x152 (x9 x152 x157))) x95))) (and (and (or x63 (not (= (x9 x46 x23) x46))) (and (and (and (or x118 (not x118)) (or x19 (not (= x46 (x9 x46 x129))))) (or x28 (not (= (x9 x46 x152) x46)))) (or (not (= (x9 x46 x157) x46)) x95))) (and (and (or (not (= x129 (x9 x129 x157))) x95) (and (or (not (= x129 (x9 x129 x152))) x28) (and (or x19 (not x19)) (or (not (= (x9 x129 x46) x129)) x118)))) (or x63 (not (= x129 (x9 x129 x23))))))) (and (and (and (or (not (= (x9 x157 x152) x157)) x28) (and (or x19 (not (= (x9 x157 x129) x157))) (or x118 (not (= (x9 x157 x46) x157))))) (or x95 (not x95))) (or (not (= x157 (x9 x157 x23))) x63))))))
(assert (not (and (and (and (= x129 (x9 x157 x23)) (= (x9 x46 x46) x23)) (= (x9 x152 x152) x157)) (= x152 (x9 x46 x23)))))
(assert (not (and (and (and (= (x9 x157 x46) x152) (= x46 (x9 x129 x129))) (= (x9 x23 x23) x157)) (= (x9 x129 x46) x23))))
(assert (not (and (= (x9 x157 x46) x152) (and (= (x9 x152 x152) x23) (and (= x129 (x9 x23 x46)) (= x46 (x9 x157 x157)))))))
(assert (not (and (and (and (= x23 (x9 x129 x152)) (= (x9 x157 x157) x152)) (= x129 (x9 x46 x46))) (= x46 (x9 x157 x152)))))
(assert (not (and (= (x9 x157 x129) x23) (and (= (x9 x23 x23) x152) (and (= (x9 x152 x129) x46) (= x129 (x9 x157 x157)))))))
(assert (not (and (= (x9 x23 x46) x157) (and (and (= x46 (x9 x23 x23)) (= x152 (x9 x129 x46))) (= (x9 x157 x157) x129)))))
(assert (not (and (= x46 (x9 x157 x129)) (and (and (= x129 (x9 x157 x157)) (= (x9 x23 x129) x152)) (= x23 (x9 x46 x46))))))
(assert (not (and (and (and (= (x9 x23 x23) x129) (= (x9 x157 x129) x152)) (= (x9 x46 x46) x157)) (= x46 (x9 x23 x129)))))
(assert (not (and (and (and (= (x9 x23 x157) x129) (= x157 (x9 x152 x152))) (= x23 (x9 x46 x46))) (= (x9 x152 x157) x46))))
(assert (not (and (= (x9 x129 x152) x23) (and (and (= (x9 x129 x129) x152) (= x157 (x9 x46 x152))) (= x46 (x9 x23 x23))))))
(assert (not (and (= (x9 x23 x152) x157) (and (and (= (x9 x46 x152) x129) (= (x9 x23 x23) x152)) (= x46 (x9 x157 x157))))))
(assert (not (and (= x157 (x9 x23 x129)) (and (= x152 (x9 x157 x157)) (and (= x46 (x9 x152 x129)) (= x129 (x9 x23 x23)))))))
(assert (not (and (= x152 (x9 x23 x46)) (and (= x129 (x9 x152 x152)) (and (= (x9 x23 x23) x46) (= x157 (x9 x129 x46)))))))
(assert (not (and (and (= x152 (x9 x129 x129)) (and (= (x9 x157 x157) x46) (= x23 (x9 x152 x46)))) (= (x9 x157 x46) x129))))
(assert (not (and (= x129 (x9 x23 x46)) (and (= x152 (x9 x129 x129)) (and (= x46 (x9 x23 x23)) (= x157 (x9 x152 x46)))))))
(assert (not (and (= x46 (x9 x129 x152)) (and (= x157 (x9 x46 x46)) (and (= (x9 x157 x152) x23) (= (x9 x129 x129) x152))))))
(assert (not (and (= (x9 x152 x23) x129) (and (and (= x157 (x9 x46 x23)) (= x23 (x9 x152 x152))) (= (x9 x129 x129) x46)))))
(assert (not (and (= (x9 x157 x152) x23) (and (and (= x152 (x9 x157 x157)) (= (x9 x129 x152) x46)) (= x129 (x9 x23 x23))))))
(assert (and (and (and (not (= x152 x157)) (and (not (= x46 x23)) (and (not (= x157 x46)) (and (not (= x152 x46)) (and (and (and (not (= x129 x46)) (not (= x152 x129))) (not (= x129 x157))) (not (= x129 x23))))))) (not (= x23 x152))) (not (= x23 x157))))
(assert (not (and (and (= (x9 x46 x46) x23) (and (= (x9 x157 x157) x152) (= (x9 x23 x152) x129))) (= (x9 x157 x152) x46))))
(assert (not (and (and (= x129 (x9 x152 x152)) (and (= x23 (x9 x129 x46)) (= x46 (x9 x157 x157)))) (= (x9 x157 x46) x152))))
(assert (not (and (and (= x23 (x9 x129 x129)) (and (= x46 (x9 x152 x152)) (= (x9 x23 x46) x157))) (= x129 (x9 x152 x46)))))
(assert (not (and (= (x9 x23 x46) x152) (and (and (= (x9 x157 x46) x129) (= x46 (x9 x23 x23))) (= (x9 x152 x152) x157)))))
(assert (let ((x53 (x9 x46 x46)) (x24 (x9 x157 x46)) (x41 (x9 x157 x152)) (x88 (x9 x129 x46)) (x125 (x9 x129 x129)) (x77 (x9 x23 x157)) (x158 (x9 x152 x129)) (x44 (x9 x46 x157)) (x145 (x9 x152 x157)) (x123 (x9 x23 x129)) (x133 (x9 x152 x23)) (x37 (x9 x46 x23)) (x104 (x9 x23 x152)) (x146 (x9 x152 x152)) (x38 (x9 x23 x23)) (x76 (x9 x157 x23)) (x135 (x9 x129 x152)) (x33 (x9 x46 x152)) (x98 (x9 x157 x157)) (x113 (x9 x152 x46)) (x114 (x9 x129 x157)) (x148 (x9 x46 x129)) (x144 (x9 x23 x46)) (x52 (x9 x129 x23)) (x140 (x9 x157 x129))) (let ((x63 (not (= x129 x158))) (x109 (not (= x129 x44))) (x69 (not (= x123 x23))) (x73 (not (= x46 x33))) (x124 (not (= x148 x46))) (x150 (not (= x152 x104))) (x118 (not (= x148 x129))) (x153 (not (= x129 x77))) (x71 (not (= x41 x129))) (x35 (not (= x114 x157))) (x66 (not (= x53 x46))) (x149 (not (= x152 x38))) (x121 (not (= x104 x157))) (x80 (not (= x46 x52))) (x101 (not (= x104 x129))) (x93 (not (= x145 x46))) (x90 (not (= x46 x140))) (x96 (not (= x133 x129))) (x128 (not (= x33 x152))) (x106 (not (= x46 x125))) (x17 (not (= x152 x52))) (x134 (not (= x152 x41))) (x147 (not (= x135 x157))) (x34 (not (= x53 x157))) (x6 (not (= x77 x23))) (x89 (not (= x24 x129))) (x48 (not (= x46 x98))) (x61 (not (= x158 x152))) (x81 (not (= x146 x152))) (x99 (not (= x41 x157))) (x155 (not (= x125 x23))) (x8 (not (= x33 x129))) (x19 (not (= x125 x129))) (x84 (not (= x129 x123))) (x62 (not (= x24 x152))) (x151 (not (= x152 x37))) (x127 (not (= x152 x133))) (x65 (not (= x46 x41))) (x141 (not (= x125 x152))) (x20 (not (= x53 x23))) (x138 (not (= x148 x152))) (x4 (not (= x125 x157))) (x82 (not (= x129 x114))) (x108 (not (= x114 x152))) (x75 (not (= x157 x144))) (x59 (not (= x140 x23))) (x143 (not (= x146 x129))) (x27 (not (= x157 x37))) (x102 (not (= x144 x46))) (x85 (not (= x38 x46))) (x92 (not (= x152 x88))) (x56 (not (= x76 x157))) (x49 (not (= x52 x23))) (x154 (not (= x33 x157))) (x107 (not (= x129 x38))) (x91 (not (= x76 x152))) (x40 (not (= x135 x23))) (x132 (not (= x152 x98))) (x79 (not (= x24 x46))) (x83 (not (= x152 x113))) (x87 (not (= x46 x123))) (x51 (not (= x46 x44))) (x116 (not (= x157 x113))) (x105 (not (= x23 x148))) (x60 (not (= x152 x123))) (x94 (not (= x113 x46))) (x120 (not (= x129 x144))) (x110 (not (= x114 x23))) (x136 (not (= x129 x98))) (x55 (not (= x152 x53))) (x50 (not (= x23 x37))) (x25 (not (= x157 x146))) (x11 (not (= x23 x33))) (x1 (not (= x113 x23))) (x58 (not (= x24 x23))) (x45 (not (= x23 x38))) (x12 (not (= x23 x88))) (x7 (not (= x157 x38))) (x30 (not (= x135 x129))) (x57 (not (= x157 x77))) (x29 (not (= x140 x157))) (x3 (not (= x157 x145))) (x22 (not (= x144 x23))) (x126 (not (= x77 x152))) (x32 (not (= x23 x158))) (x67 (not (= x123 x157))) (x2 (not (= x46 x133))) (x72 (not (= x44 x157))) (x117 (not (= x133 x23))) (x31 (not (= x46 x146))) (x18 (not (= x157 x88))) (x112 (not (= x46 x37))) (x122 (not (= x129 x52))) (x70 (not (= x135 x152))) (x13 (not (= x152 x144))) (x97 (not (= x135 x46))) (x21 (not (= x114 x46))) (x130 (not (= x98 x157))) (x156 (not (= x23 x104))) (x14 (not (= x145 x129))) (x78 (not (= x77 x46))) (x115 (not (= x152 x145))) (x15 (not (= x158 x46))) (x5 (not (= x152 x140))) (x43 (not (= x41 x23))) (x137 (not (= x52 x157))) (x39 (not (= x129 x140))) (x47 (not (= x129 x76))) (x16 (not (= x157 x24))) (x64 (not (= x23 x146))) (x131 (not (= x46 x104))) (x54 (not (= x44 x23))) (x36 (not (= x129 x37))) (x139 (not (= x46 x88))) (x86 (not (= x44 x152))) (x28 (not (= x129 x88))) (x68 (not (= x133 x157))) (x74 (not (= x46 x76))) (x142 (not (= x129 x113))) (x95 (not (= x129 x53))) (x103 (not (= x23 x98))) (x100 (not (= x76 x23))) (x42 (not (= x157 x158))) (x119 (not (= x145 x23))) (x26 (not (= x157 x148)))) (or (and (and (and (or x6 x100) (and (or x156 x117) (and (or x69 x49) (or x50 x22)))) (or x45 x45)) (and (and (and (and (or x119 x43) (and (and (or x32 x40) (or x1 x11)) (or x64 x64))) (or x156 x117)) (and (and (or x69 x49) (and (and (and (or x155 x155) (or x12 x105)) (or x32 x40)) (or x59 x110))) (and (or x50 x22) (and (or x54 x58) (and (and (or x105 x12) (or x20 x20)) (or x11 x1)))))) (and (or x6 x100) (and (or x103 x103) (and (and (or x54 x58) (or x110 x59)) (or x43 x119)))))) (or (or (or (and (and (and (or x47 x153) (and (and (or x71 x14) (and (or x89 x109) (or x82 x39))) (or x136 x136))) (and (and (and (or x122 x84) (and (and (and (or x19 x19) (or x118 x28)) (or x63 x30)) (or x39 x82))) (and (and (and (or x142 x8) (and (or x95 x95) (or x28 x118))) (or x109 x89)) (or x120 x36))) (and (and (or x71 x14) (and (and (or x142 x8) (or x63 x30)) (or x143 x143))) (or x96 x101)))) (and (or x107 x107) (and (and (or x96 x101) (and (or x84 x122) (or x120 x36))) (or x47 x153)))) (and (and (and (and (and (and (or x90 x21) (and (and (or x106 x106) (or x124 x139)) (or x97 x15))) (or x80 x87)) (and (and (and (and (or x66 x66) (or x139 x124)) (or x94 x73)) (or x51 x79)) (or x102 x112))) (and (or x131 x2) (and (and (or x31 x31) (and (or x15 x97) (or x94 x73))) (or x65 x93)))) (and (or x74 x78) (and (and (or x65 x93) (and (or x51 x79) (or x90 x21))) (or x48 x48)))) (and (or x85 x85) (and (and (or x131 x2) (and (or x102 x112) (or x87 x80))) (or x74 x78))))) (and (and (and (or x126 x91) (and (or x127 x150) (and (or x17 x60) (or x13 x151)))) (or x149 x149)) (and (and (and (or x127 x150) (and (and (and (or x128 x83) (or x61 x70)) (or x81 x81)) (or x115 x134))) (and (and (or x60 x17) (and (and (or x70 x61) (and (or x138 x92) (or x141 x141))) (or x108 x5))) (and (or x151 x13) (and (or x86 x62) (and (and (or x55 x55) (or x138 x92)) (or x128 x83)))))) (and (or x126 x91) (and (and (and (or x108 x5) (or x86 x62)) (or x134 x115)) (or x132 x132)))))) (and (and (and (or x57 x56) (and (or x130 x130) (and (or x3 x99) (and (or x72 x16) (or x35 x29))))) (and (and (and (and (or x16 x72) (and (and (or x26 x18) (or x34 x34)) (or x154 x116))) (or x27 x75)) (and (and (or x29 x35) (and (and (or x18 x26) (or x4 x4)) (or x42 x147))) (or x67 x137))) (and (or x121 x68) (and (or x99 x3) (and (or x25 x25) (and (or x147 x42) (or x116 x154))))))) (and (and (and (or x68 x121) (and (or x27 x75) (or x137 x67))) (or x56 x57)) (or x7 x7))))))))
(assert (not (and (and (and (= (x9 x157 x157) x46) (= x152 (x9 x129 x46))) (= x129 (x9 x23 x23))) (= (x9 x157 x46) x23))))
(assert (not (and (= x129 (x9 x157 x152)) (and (= x23 (x9 x129 x129)) (and (= (x9 x23 x152) x46) (= x152 (x9 x157 x157)))))))
(assert (not (and (and (= (x9 x152 x152) x46) (and (= (x9 x23 x23) x157) (= (x9 x46 x157) x129))) (= (x9 x23 x157) x152))))
(assert (not (and (and (and (= x46 (x9 x23 x129)) (= (x9 x152 x152) x129)) (= (x9 x157 x157) x23)) (= (x9 x152 x129) x157))))
(assert (not (and (and (and (= x129 (x9 x152 x152)) (= (x9 x46 x129) x23)) (= (x9 x157 x157) x46)) (= x157 (x9 x152 x129)))))
(assert (not (and (= x46 (x9 x157 x129)) (and (= (x9 x46 x46) x152) (and (= (x9 x157 x157) x129) (= x23 (x9 x152 x129)))))))
(assert (not (and (= (x9 x23 x152) x46) (and (= (x9 x46 x46) x129) (and (= (x9 x129 x152) x157) (= x152 (x9 x23 x23)))))))
(assert (not (and (= (x9 x23 x152) x157) (and (= x129 (x9 x157 x157)) (and (= x152 (x9 x23 x23)) (= (x9 x129 x152) x46))))))
(assert (not (and (and (= x129 (x9 x23 x23)) (and (= x152 (x9 x129 x157)) (= (x9 x46 x46) x157))) (= (x9 x46 x157) x23))))
(assert (not (and (= x23 (x9 x152 x157)) (and (and (= (x9 x46 x157) x129) (= x157 (x9 x152 x152))) (= x46 (x9 x23 x23))))))
(assert (not (and (= (x9 x157 x23) x129) (and (= x152 (x9 x129 x129)) (and (= (x9 x157 x157) x23) (= x46 (x9 x152 x23)))))))
(assert (and (and (and (and (or (or (= (x9 (x9 x157 x129) x129) x157) (or (= (x9 (x9 x152 x129) x129) x152) (or (= x129 (x9 (x9 x129 x129) x129)) (= (x9 (x9 x46 x129) x129) x46)))) (= x23 (x9 (x9 x23 x129) x129))) (or (or (or (= x152 (x9 (x9 x152 x46) x46)) (or (= (x9 (x9 x46 x46) x46) x46) (= x129 (x9 (x9 x129 x46) x46)))) (= (x9 (x9 x157 x46) x46) x157)) (= (x9 (x9 x23 x46) x46) x23))) (or (or (= x157 (x9 (x9 x157 x152) x152)) (or (= (x9 (x9 x152 x152) x152) x152) (or (= x46 (x9 (x9 x46 x152) x152)) (= x129 (x9 (x9 x129 x152) x152))))) (= (x9 (x9 x23 x152) x152) x23))) (or (= (x9 (x9 x23 x157) x157) x23) (or (or (= (x9 (x9 x152 x157) x157) x152) (or (= (x9 (x9 x46 x157) x157) x46) (= x129 (x9 (x9 x129 x157) x157)))) (= x157 (x9 (x9 x157 x157) x157))))) (or (or (or (= (x9 (x9 x152 x23) x23) x152) (or (= x46 (x9 (x9 x46 x23) x23)) (= x129 (x9 (x9 x129 x23) x23)))) (= x157 (x9 (x9 x157 x23) x23))) (= (x9 (x9 x23 x23) x23) x23))))
(assert (not (and (and (= (x9 x157 x157) x23) (and (= (x9 x129 x129) x46) (= x152 (x9 x23 x46)))) (= x157 (x9 x129 x46)))))
(assert (not (and (= (x9 x129 x157) x152) (and (= x46 (x9 x152 x152)) (and (= x23 (x9 x46 x157)) (= x157 (x9 x129 x129)))))))
(assert (not (and (= (x9 x46 x157) x23) (and (and (= x129 (x9 x152 x157)) (= x157 (x9 x46 x46))) (= x152 (x9 x23 x23))))))
(assert (not (and (= (x9 x157 x129) x152) (and (and (= x129 (x9 x157 x157)) (= (x9 x46 x129) x23)) (= x46 (x9 x152 x152))))))
(assert (not (and (and (and (= x129 (x9 x23 x23)) (= (x9 x46 x129) x152)) (= (x9 x157 x157) x46)) (= x157 (x9 x23 x129)))))
(assert (not (and (and (= (x9 x152 x152) x23) (and (= (x9 x157 x157) x129) (= x46 (x9 x23 x129)))) (= (x9 x157 x129) x152))))
(assert (not (and (and (and (= x157 (x9 x152 x23)) (= x23 (x9 x46 x46))) (= x152 (x9 x129 x129))) (= x129 (x9 x46 x23)))))
(assert (not (and (= (x9 x157 x23) x152) (and (= (x9 x152 x152) x46) (and (= (x9 x157 x157) x23) (= (x9 x46 x23) x129))))))
(assert (not (and (and (and (= (x9 x152 x129) x23) (= (x9 x46 x46) x129)) (= x152 (x9 x157 x157))) (= x157 (x9 x46 x129)))))
(assert (not (and (= x152 (x9 x129 x46)) (and (and (= x157 (x9 x23 x46)) (= (x9 x129 x129) x46)) (= x23 (x9 x152 x152))))))
(assert (not (and (= x23 (x9 x152 x129)) (and (and (= (x9 x157 x129) x46) (= (x9 x152 x152) x129)) (= x157 (x9 x23 x23))))))
(assert (not (and (and (= (x9 x46 x46) x152) (and (= x129 (x9 x152 x23)) (= x23 (x9 x157 x157)))) (= (x9 x157 x23) x46))))
(assert (not (and (= x46 (x9 x152 x23)) (and (= (x9 x46 x46) x157) (and (= x129 (x9 x157 x23)) (= (x9 x152 x152) x23))))))
(assert (not (and (= x157 (x9 x46 x152)) (and (= x23 (x9 x157 x157)) (and (= (x9 x46 x46) x152) (= (x9 x23 x152) x129))))))
(assert (not (and (and (= (x9 x23 x23) x152) (and (= x157 (x9 x129 x129)) (= (x9 x152 x157) x46))) (= (x9 x129 x157) x23))))
(assert (not (and (and (= (x9 x23 x23) x152) (and (= (x9 x157 x157) x46) (= (x9 x152 x46) x129))) (= x23 (x9 x157 x46)))))
(assert (not (and (= x129 (x9 x152 x23)) (and (and (= x46 (x9 x157 x23)) (= (x9 x152 x152) x23)) (= x157 (x9 x129 x129))))))
(assert (not (and (= (x9 x46 x129) x157) (and (and (= (x9 x46 x46) x129) (= x152 (x9 x23 x129))) (= x23 (x9 x157 x157))))))
(assert (not (and (and (= x46 (x9 x23 x23)) (and (= x129 (x9 x157 x157)) (= (x9 x46 x129) x152))) (= x23 (x9 x157 x129)))))
(assert (not (and (and (= (x9 x129 x129) x23) (and (= (x9 x23 x157) x152) (= (x9 x46 x46) x157))) (= x129 (x9 x46 x157)))))
(assert (not (and (= x23 (x9 x46 x152)) (and (= x157 (x9 x23 x23)) (and (= x129 (x9 x157 x152)) (= x152 (x9 x46 x46)))))))
(check-sat)
(exit)
